
Gurobi 11.0.3 (win64) logging started Tue Sep  3 17:17:00 2024

Set parameter LogFile to value "C:\Users\ealvarezq\Desktop\D.Representative_days_based_on_RES_and_Demand\IEEE118_mod2_ByStages_nc120/openStarNet_IEEE118_mod2_ByStages_nc120.log"
Set parameter Method to value 2
Set parameter MIPFocus to value 1
Set parameter Presolve to value 2
Set parameter RINS to value 100
Set parameter MIPGap to value 0.01
Set parameter Threads to value 24
Set parameter TimeLimit to value 259200
Set parameter IterationLimit to value 760000000
Gurobi Optimizer version 11.0.3 build v11.0.3rc0 (win64 - Windows Server 2019.0 (17763.2))

CPU model: AMD Ryzen Threadripper PRO 3955WX 16-Cores, instruction set [SSE2|AVX|AVX2]
Thread count: 16 physical cores, 32 logical processors, using up to 24 threads

Optimize a model with 170523 rows, 126041 columns and 439258 nonzeros
Model fingerprint: 0xdf120cf2
Variable types: 126007 continuous, 34 integer (34 binary)
Coefficient statistics:
  Matrix range     [1e-03, 9e+03]
  Objective range  [1e+00, 1e+00]
  Bounds range     [1e-04, 3e+00]
  RHS range        [1e-04, 3e+00]
Presolve removed 115445 rows and 58469 columns
Presolve time: 1.17s
Presolved: 55078 rows, 67572 columns, 201219 nonzeros
Variable types: 67538 continuous, 34 integer (34 binary)
Root relaxation presolved: 55078 rows, 67572 columns, 201219 nonzeros

Root barrier log...

Ordering time: 0.03s

Barrier statistics:
 Dense cols : 34
 AA' NZ     : 2.498e+05
 Factor NZ  : 9.847e+05 (roughly 60 MB of memory)
 Factor Ops : 2.147e+07 (less than 1 second per iteration)
 Threads    : 23

                  Objective                Residual
Iter       Primal          Dual         Primal    Dual     Compl     Time
   0   8.97785475e+06 -6.68469589e+08  1.57e+01 7.90e+02  1.83e+04     2s
   1   2.19111894e+06 -2.57109302e+08  3.48e+00 1.86e-08  3.80e+03     2s
   2   6.03884747e+05 -1.00809027e+08  6.50e-01 1.76e-08  9.03e+02     2s
   3   3.55361978e+05 -2.53319512e+07  1.83e-01 2.44e-09  1.99e+02     2s
   4   2.30757918e+05 -4.26647362e+06  1.65e-02 7.12e-10  2.88e+01     2s
   5   1.72208290e+05 -1.16226700e+06  7.79e-03 1.84e-10  8.38e+00     2s
   6   7.81201832e+04 -3.32743799e+05  2.75e-03 4.63e-11  2.55e+00     2s
   7   3.08230769e+04 -7.39189267e+04  8.30e-04 1.00e-11  6.47e-01     2s
   8   1.60409738e+04 -3.80808220e+04  3.67e-04 8.27e-12  3.34e-01     2s
   9   9.68564411e+03 -1.43319200e+04  1.84e-04 3.20e-12  1.48e-01     2s
  10   6.57081893e+03 -5.75393951e+03  1.08e-04 2.82e-12  7.60e-02     2s
  11   4.38177034e+03 -1.83196067e+03  6.09e-05 2.64e-12  3.83e-02     2s
  12   2.95373481e+03 -2.13152555e+02  3.25e-05 2.41e-12  1.95e-02     2s
  13   2.24975571e+03  3.25078879e+02  1.92e-05 2.15e-12  1.19e-02     3s
  14   1.87619286e+03  7.69498593e+02  1.24e-05 3.05e-12  6.82e-03     3s
  15   1.57162009e+03  9.45560734e+02  6.89e-06 3.56e-12  3.86e-03     3s
  16   1.39444086e+03  1.05881993e+03  3.77e-06 2.86e-12  2.07e-03     3s
  17   1.31081990e+03  1.10515504e+03  2.31e-06 2.79e-12  1.27e-03     3s
  18   1.25017077e+03  1.12313995e+03  1.26e-06 3.91e-12  7.83e-04     3s
  19   1.23491315e+03  1.13153990e+03  9.96e-07 3.69e-12  6.37e-04     3s
  20   1.22123154e+03  1.14862144e+03  7.64e-07 6.09e-12  4.48e-04     3s
  21   1.20716015e+03  1.15740924e+03  5.30e-07 3.27e-12  3.07e-04     3s
  22   1.19056922e+03  1.16529146e+03  2.63e-07 2.28e-12  1.56e-04     3s
  23   1.18415288e+03  1.16908724e+03  1.56e-07 2.19e-12  9.29e-05     3s
  24   1.18071949e+03  1.17091273e+03  9.55e-08 2.31e-12  6.05e-05     3s
  25   1.17809889e+03  1.17307136e+03  4.95e-08 1.74e-12  3.10e-05     3s
  26   1.17726552e+03  1.17342843e+03  3.51e-08 2.09e-12  2.37e-05     3s
  27   1.17611328e+03  1.17394263e+03  2.34e-08 2.25e-12  1.34e-05     3s
  28   1.17560159e+03  1.17446823e+03  2.39e-08 1.45e-12  6.99e-06     3s
  29   1.17522398e+03  1.17490316e+03  7.84e-09 3.60e-12  1.98e-06     3s
  30   1.17517796e+03  1.17514147e+03  1.53e-09 4.04e-12  2.25e-07     3s
  31   1.17516783e+03  1.17516192e+03  9.90e-10 3.63e-12  3.65e-08     3s
  32   1.17516631e+03  1.17516506e+03  2.69e-09 3.15e-12  7.69e-09     3s
  33   1.17516605e+03  1.17516579e+03  7.78e-09 2.28e-12  1.60e-09     3s
  34   1.17516597e+03  1.17516596e+03  1.58e-09 4.75e-12  3.22e-11     3s

Barrier solved model in 34 iterations and 3.18 seconds (2.20 work units)
Optimal objective 1.17516597e+03


Root relaxation: objective 1.175166e+03, 4939 iterations, 2.83 seconds (1.78 work units)

    Nodes    |    Current Node    |     Objective Bounds      |     Work
 Expl Unexpl |  Obj  Depth IntInf | Incumbent    BestBd   Gap | It/Node Time

     0     0 1175.16597    0   24          - 1175.16597      -     -    4s
H    0     0                    8540.1926088 1175.16597  86.2%     -   10s
H    0     0                    3389.4141462 1175.16597  65.3%     -   14s
     0     0 1196.99135    0   23 3389.41415 1196.99135  64.7%     -   21s
     0     0 1197.09032    0   23 3389.41415 1197.09032  64.7%     -   24s
     0     0 1197.09266    0   23 3389.41415 1197.09266  64.7%     -   25s
     0     0 1198.37649    0   20 3389.41415 1198.37649  64.6%     -   26s
     0     0 1198.60161    0   22 3389.41415 1198.60161  64.6%     -   28s
     0     0 1198.63680    0   22 3389.41415 1198.63680  64.6%     -   28s
     0     0 1198.63707    0   22 3389.41415 1198.63707  64.6%     -   28s
     0     0 1200.47539    0   20 3389.41415 1200.47539  64.6%     -   33s
     0     0 1200.48210    0   20 3389.41415 1200.48210  64.6%     -   33s
     0     0 1200.48281    0   20 3389.41415 1200.48281  64.6%     -   33s
     0     0 1200.52499    0   20 3389.41415 1200.52499  64.6%     -   36s
     0     0 1200.53930    0   20 3389.41415 1200.53930  64.6%     -   37s
     0     0 1200.53950    0   20 3389.41415 1200.53950  64.6%     -   37s
     0     0 1200.54834    0   20 3389.41415 1200.54834  64.6%     -   40s
H    0     0                    1331.2715301 1200.54834  9.82%     -  479s
     0     2 1200.54834    0   20 1331.27153 1200.54834  9.82%     -  481s
     1     4 1261.77245    1   19 1331.27153 1200.73304  9.81%  9448  490s
     3     8 1270.49418    2   19 1331.27153 1219.90007  8.37%  3897  497s
     7    12     cutoff    3      1331.27153 1229.29873  7.66%  3725  506s
    15    18 1242.55553    4   16 1331.27153 1234.96413  7.23%  3131  516s
    27    30 1255.82023    5   16 1331.27153 1242.59016  6.66%  2917  538s
    45    46 1300.72058    6   15 1331.27153 1252.89157  5.89%  2629  549s
    69    55 1302.86005    7   15 1331.27153 1258.75505  5.45%  2429  561s
    93    59     cutoff    8      1331.27153 1258.75505  5.45%  2191  577s
   117    61     cutoff    7      1331.27153 1258.75505  5.45%  2187  587s
   141    67 1304.39671   10   12 1331.27153 1258.75505  5.45%  2102  591s
   173    75 1320.16062   11   11 1331.27153 1258.75505  5.45%  1852  600s
   235    86     cutoff   13      1331.27153 1258.75505  5.45%  1626  614s
   268    87     cutoff   12      1331.27153 1258.75505  5.45%  1585  621s
   309    94 1325.35212   12   10 1331.27153 1258.75505  5.45%  1486  626s
   356    98 1327.85956   13    9 1331.27153 1258.75505  5.45%  1384  638s
   410    82     cutoff   14      1331.27153 1262.34754  5.18%  1336  646s
   471    74 1297.54298    8   14 1331.27153 1262.34754  5.18%  1278  657s
   525    69     cutoff    9      1331.27153 1262.34754  5.18%  1247  680s
   581    66 1302.39450    8   14 1331.27153 1262.34754  5.18%  1225  685s
   643    75     cutoff   10      1331.27153 1262.34754  5.18%  1189  705s
   713    61 1309.47530    9   12 1331.27153 1262.34754  5.18%  1143  715s
   799    38 1318.83588   10   11 1331.27153 1262.34754  5.18%  1084  888s
   857    38     cutoff   10      1331.27153 1262.34754  5.18%  1086  899s
   904    12     cutoff   12      1331.27153 1273.12430  4.37%  1065  908s
   957    11 1308.49995    8   14 1331.27153 1273.15528  4.37%  1045  917s
   982     8     cutoff    9      1331.27153 1277.90064  4.01%  1039  925s
   999    15 1297.67897   12    8 1331.27153 1289.63604  3.13%  1034  978s
  1010    33 1306.08534   13    7 1331.27153 1296.16104  2.64%  1043  994s
  1042     7 1321.48034   14    7 1331.27153 1299.39353  2.39%  1055 1003s
  1115     4     cutoff   16      1331.27153 1315.93098  1.15%  1024 1005s

Cutting planes:
  Gomory: 3
  Implied bound: 291
  MIR: 539
  Flow cover: 8
  RLT: 1
  Relax-and-lift: 2

Explored 1142 nodes (1160584 simplex iterations) in 1008.26 seconds (1030.93 work units)
Thread count was 24 (of 32 available processors)

Solution count 3: 1331.27 3389.41 8540.19 

Optimal solution found (tolerance 1.00e-02)
Best objective 1.331271530075e+03, best bound 1.331271530075e+03, gap 0.0000%

Gurobi 11.0.3 (win64) logging started Tue Sep  3 17:35:07 2024

Set parameter LogFile to value "C:\Users\ealvarezq\Desktop\D.Representative_days_based_on_RES_and_Demand\IEEE118_mod2_ByStages_nc120/openStarNet_IEEE118_mod2_ByStages_nc120.log"
Set parameter Method to value 2
Set parameter MIPFocus to value 1
Set parameter Presolve to value 2
Set parameter RINS to value 100
Set parameter MIPGap to value 0.01
Set parameter Threads to value 24
Set parameter TimeLimit to value 259200
Set parameter IterationLimit to value 760000000
Gurobi Optimizer version 11.0.3 build v11.0.3rc0 (win64 - Windows Server 2019.0 (17763.2))

CPU model: AMD Ryzen Threadripper PRO 3955WX 16-Cores, instruction set [SSE2|AVX|AVX2]
Thread count: 16 physical cores, 32 logical processors, using up to 24 threads

Optimize a model with 170523 rows, 126007 columns and 422904 nonzeros
Model fingerprint: 0x7f88c059
Coefficient statistics:
  Matrix range     [1e-03, 9e+03]
  Objective range  [1e+00, 1e+00]
  Bounds range     [1e-04, 3e+00]
  RHS range        [1e-04, 3e+02]
Presolve removed 126773 rows and 55197 columns
Presolve time: 0.42s
Presolved: 43750 rows, 71187 columns, 170474 nonzeros

Ordering time: 0.02s

Barrier statistics:
 AA' NZ     : 1.449e+05
 Factor NZ  : 5.845e+05 (roughly 50 MB of memory)
 Factor Ops : 8.598e+06 (less than 1 second per iteration)
 Threads    : 24

                  Objective                Residual
Iter       Primal          Dual         Primal    Dual     Compl     Time
   0   1.58391638e+07 -3.46754603e+08  9.99e+01 4.82e+01  9.00e+03     1s
   1   2.26583596e+06 -1.06148967e+08  1.29e+01 7.96e-13  1.35e+03     1s
   2   4.92819075e+05 -2.11697128e+07  1.84e+00 7.96e-13  2.01e+02     1s
   3   1.91691013e+05 -3.18911112e+06  6.78e-02 6.82e-13  2.28e+01     2s
   4   8.91301008e+04 -6.12542792e+05  1.46e-02 6.82e-13  4.57e+00     2s
   5   4.10538028e+04 -1.59723303e+05  5.54e-03 5.97e-13  1.30e+00     2s
   6   1.47367650e+04 -4.08156625e+04  1.38e-03 2.27e-13  3.58e-01     2s
   7   8.68107364e+03 -1.29157236e+04  6.12e-04 1.90e-13  1.39e-01     3s
   8   5.77798622e+03 -5.99810029e+03  3.22e-04 1.62e-13  7.57e-02     3s
   9   3.63717293e+03 -1.65129297e+03  1.53e-04 2.20e-13  3.40e-02     3s
  10   2.53236099e+03  4.16608691e+01  7.54e-05 1.55e-13  1.60e-02     3s
  11   1.98602009e+03  5.60559437e+02  3.94e-05 1.84e-13  9.17e-03     3s
  12   1.77501053e+03  8.79661485e+02  2.60e-05 1.95e-13  5.76e-03     3s
  13   1.62193171e+03  1.05249227e+03  1.67e-05 1.73e-13  3.66e-03     3s
  14   1.51235211e+03  1.16699014e+03  1.01e-05 1.86e-13  2.22e-03     3s
  15   1.44423497e+03  1.25097774e+03  6.21e-06 1.88e-13  1.24e-03     4s
  16   1.37156583e+03  1.28606651e+03  2.13e-06 1.74e-13  5.50e-04     4s
  17   1.34922870e+03  1.30568931e+03  9.04e-07 1.52e-13  2.80e-04     4s
  18   1.33520012e+03  1.32255608e+03  1.82e-07 1.89e-13  8.13e-05     4s
  19   1.33343905e+03  1.32678053e+03  9.68e-08 1.71e-13  4.28e-05     4s
  20   1.33186766e+03  1.33037834e+03  2.34e-08 2.21e-13  9.58e-06     5s
  21   1.33133024e+03  1.33115883e+03  1.66e-09 2.66e-13  1.10e-06     5s
  22   1.33128211e+03  1.33124443e+03  2.32e-09 2.22e-13  2.42e-07     6s
  23   1.33127323e+03  1.33126646e+03  5.27e-10 1.91e-13  4.36e-08     6s
  24   1.33127164e+03  1.33127141e+03  1.23e-10 1.92e-13  1.49e-09     6s
  25   1.33127153e+03  1.33127153e+03  1.02e-09 1.78e-13  5.82e-13     6s

Barrier solved model in 25 iterations and 6.18 seconds (0.77 work units)
Optimal objective 1.33127153e+03

Crossover log...

   12531 DPushes remaining with DInf 0.0000000e+00                 6s
       0 DPushes remaining with DInf 0.0000000e+00                 6s

    1199 PPushes remaining with PInf 0.0000000e+00                 6s
       0 PPushes remaining with PInf 0.0000000e+00                 6s

  Push phase complete: Pinf 0.0000000e+00, Dinf 3.2460069e-12      6s

Iteration    Objective       Primal Inf.    Dual Inf.      Time
    3308    1.3312715e+03   0.000000e+00   0.000000e+00      7s

Solved in 3308 iterations and 6.58 seconds (0.95 work units)
Optimal objective  1.331271530e+03
